;; Automatically generated by Proteus on Mon Jun 13 20:44:35 CST 2016

;; Find a valuation of variables that satisfies the formulas:
;;

;; Formula 1:
;; ( in1_1_SYMREAL >= -7.99999 )
;; Formula 2:
;; ( in1_1_SYMREAL <= 6.99999 )
;; Formula 3:
;; ( in2_2_SYMREAL >= -7.99999 )
;; Formula 4:
;; ( in2_2_SYMREAL <= 6.99999 )
;; Formula 5:
;; ( sin( in1_1_SYMREAL ) < ( abs( in2_2_SYMREAL ) - 1.0E-5 ) )

(set-logic QF_NRA)


;; Variable declarations
(declare-fun in2_2_SYMREAL () Real )
(declare-fun in1_1_SYMREAL () Real )

;; Formula is (( in1_1_SYMREAL >= -7.99999 ))
(assert (>= in1_1_SYMREAL -7.99999) )

;; Formula is (( in1_1_SYMREAL <= 6.99999 ))
(assert (<= in1_1_SYMREAL 6.99999) )

;; Formula is (( in2_2_SYMREAL >= -7.99999 ))
(assert (>= in2_2_SYMREAL -7.99999) )

;; Formula is (( in2_2_SYMREAL <= 6.99999 ))
(assert (<= in2_2_SYMREAL 6.99999) )

;; Formula is (( sin( in1_1_SYMREAL ) < ( abs( in2_2_SYMREAL ) - 1.0E-5 ) ))
(assert (< (sin in1_1_SYMREAL ) (- (abs in2_2_SYMREAL ) 1.0E-5 )) )

(check-sat)
(exit)

